 vasp.5.4.4.18Apr17-6-g9f103f2a35 (build May 23 2017 16:08:52) complex

 executed on             LinuxIFC date 2024.10.14  16:02:20

 INCAR:
 POTCAR:    PAW_PBE Y_sv 25May2007
 POTCAR:    PAW_PBE Sb 06Sep2000
 POTCAR:    PAW_PBE Te 08Apr2002

 POTCAR:    PAW_PBE Y_sv 25May2007
   VRHFIN =Y: 4s4p5s4d

   TITEL  = PAW_PBE Y_sv 25May2007
   POMASS =   88.906; ZVAL   =   11.000    mass and valenz
   ENMAX  =  202.626; ENMIN  =  151.970 eV

 POTCAR:    PAW_PBE Sb 06Sep2000
   VRHFIN =Sb: s2p3

   TITEL  = PAW_PBE Sb 06Sep2000
   POMASS =  121.750; ZVAL   =    5.000    mass and valenz
   ENMAX  =  172.069; ENMIN  =  129.052 eV

 POTCAR:    PAW_PBE Te 08Apr2002
   VRHFIN =Te: s2p4

   TITEL  = PAW_PBE Te 08Apr2002
   POMASS =  127.600; ZVAL   =    6.000    mass and valenz
   ENMAX  =  174.982; ENMIN  =  131.236 eV

 Optimization of the real space projectors (new method)

 maximal supplied QI-value         = 13.42
 optimisation between [QCUT,QGAM] = [ 10.87, 21.74] = [ 33.07,132.30] Ry
 Optimized for a Real-space Cutoff    1.65 Angstroem

   l    n(q)    QCUT    max X(q) W(low)/X(q) W(high)/X(q)  e(spline)
   0     11    10.868    14.902    0.21E-04    0.16E-05    0.64E-07
   0     11    10.868     9.294    0.32E-04    0.17E-05    0.13E-06
   1     10    10.868    69.520    0.12E-03    0.48E-05    0.25E-06
   1     10    10.868    72.085    0.12E-03    0.49E-05    0.25E-06
   2     10    10.868    62.934    0.22E-03    0.51E-03    0.61E-06
   2     10    10.868    49.749    0.21E-03    0.49E-03    0.59E-06
   3      9    10.868     8.311    0.16E-03    0.20E-03    0.22E-06
 Optimization of the real space projectors (new method)

[...]

   l    n(q)    QCUT    max X(q) W(low)/X(q) W(high)/X(q)  e(spline)
   0      9    10.726    19.000    0.17E-03    0.12E-04    0.64E-07
   0      9    10.726     9.057    0.20E-03    0.14E-04    0.77E-07
   1      8    10.726   125.345    0.65E-04    0.25E-03    0.12E-06
   1      8    10.726    79.963    0.64E-04    0.24E-03    0.12E-06
   2      8    10.726     6.963    0.16E-03    0.15E-04    0.42E-07
 Optimization of the real space projectors (new method)

 maximal supplied QI-value         = 16.25
 optimisation between [QCUT,QGAM] = [ 10.73, 21.61] = [ 32.22,130.83] Ry
 Optimized for a Real-space Cutoff    1.38 Angstroem

   l    n(q)    QCUT    max X(q) W(low)/X(q) W(high)/X(q)  e(spline)
   0      9    10.726   224.858    0.24E-03    0.26E-04    0.79E-07
   0      9    10.726   205.313    0.24E-03    0.26E-04    0.80E-07
   1      8    10.726   119.695    0.67E-04    0.26E-03    0.13E-06
   1      8    10.726    84.282    0.66E-04    0.25E-03    0.12E-06
   2      8    10.726     5.599    0.15E-03    0.12E-04    0.41E-07
  PAW_PBE Y_sv 25May2007                :
  PAW_PBE Sb 06Sep2000                  :
  PAW_PBE Te 08Apr2002                  :

 POSCAR: Y8 Sb46 Te81
  positions in direct lattice
 exchange correlation table for  LEXCH =        8
   RHO(1)=    0.500       N(1)  =     2000
   RHO(2)=  100.500       N(2)  =     4000

 ion  position               nearest neighbor table
   1  0.558  0.784  0.721-  75 3.08  81 3.10 128 3.10  80 3.11 129 3.12 134 3.13   4 4.31
   2  0.446  0.557  0.946-  63 3.06 107 3.06  62 3.08  59 3.09 102 3.10 108 3.14
   3  0.106  0.897  0.277-  86 3.05  64 3.10  65 3.10  82 3.11  83 3.12  70 3.13
   4  0.884  0.104  0.723- 129 3.07  73 3.08  75 3.09 130 3.09  76 3.13 132 3.14   1 4.31
   5  0.005  0.656  0.501-  97 3.05 124 3.10 118 3.11  92 3.12 126 3.12  91 3.14   7 4.29
   6  0.225  0.113  0.055- 113 3.07 109 3.08 112 3.08  59 3.09  56 3.09  55 3.11  18 4.07
   7  0.681  0.335  0.503-  97 3.04  99 3.07 126 3.10  96 3.13 123 3.13 122 3.14  46 4.03   5 4.29

   8  0.120  0.225  0.941- 103 3.05  55 3.08 104 3.08 107 3.09  58 3.11  59 3.17  49 4.07
   9  0.237  0.783  0.720- 128 2.99  80 3.02  74 3.03 127 3.18  79 3.20 133 3.20
  10  0.437  0.218  0.274-  86 2.97  87 3.03  90 3.10  65 3.10  68 3.17  69 3.24
  11  0.775  0.562  0.274-  82 2.99  90 3.04  88 3.07  72 3.15  70 3.17  69 3.23
  12  0.897  0.773  0.722- 135 3.05  79 3.07 127 3.11  73 3.11 129 3.11  81 3.12
  13  0.219  0.787  0.059- 109 2.93 110 3.02  56 3.07  61 3.14 115 3.19  62 3.28
  14  0.334  0.006  0.163- 113 3.03 109 3.03 110 3.08  87 3.14  86 3.16  83 3.18
  15  0.896  0.435  0.390- 123 2.96  67 2.97 124 2.99  69 3.21 126 3.27  70 3.28
  16  0.664  0.990  0.511-  93 2.90  94 2.90  96 2.93 120 3.28 119 3.37 123 3.45
  17  0.112  0.550  0.277-  89 3.01  67 3.02  71 3.08  70 3.16  88 3.16  83 3.19
  18  0.333  0.335  0.155- 113 2.90 112 2.93 116 2.94  90 3.33  86 3.33  89 3.35   6 4.07
  19  0.332  0.666  0.827- 134 2.93 133 2.93 128 3.06 107 3.15 101 3.27 102 3.32
  20  0.685  0.998  0.168- 111 2.83  85 3.00  84 3.04 114 3.12  87 3.34 110 3.38
  21  0.654  0.662  0.499- 125 2.98  93 3.02  99 3.08 126 3.17 120 3.18  91 3.23
  22  0.217  0.765  0.392- 124 2.94  71 3.04 119 3.05 118 3.13  70 3.16  65 3.30
  23  0.221  0.436  0.052-  59 2.95 112 3.06  58 3.07 116 3.10  62 3.15 115 3.28
  24  0.868  0.433  0.718-  78 2.84 135 3.00 132 3.03  79 3.16  76 3.22 133 3.47
  25  0.229  0.449  0.717-  80 2.90  76 2.93  77 2.99 133 3.21 134 3.23 130 3.33
  26  0.979  0.642  0.163- 117 2.85  88 2.94 115 2.99  82 3.25 109 3.33  83 3.43
  27  0.445  0.894  0.278-  66 3.07  83 3.09  65 3.10  71 3.11  87 3.12  84 3.15
  28  0.773  0.887  0.946-  57 2.99 102 3.01  63 3.05 103 3.12  55 3.18 100 3.21
  29  0.763  0.881  0.617-  75 2.90  81 2.96  93 3.05  73 3.21  94 3.28  91 3.38
  30  0.338  0.668  0.163- 116 2.98 110 3.05 115 3.09  84 3.10  89 3.25  83 3.30
  31  0.230  0.119  0.724-  77 3.00 131 3.01 130 3.08  74 3.14  73 3.17 127 3.20
  32  0.432  0.537  0.277-  89 2.92  68 2.94  90 2.95  71 3.26  72 3.31  84 3.32
  33  0.662  0.315  0.842- 105 2.84 106 2.95 108 3.11 132 3.14 131 3.32 135 3.46
  34  0.661  0.663  0.838- 102 2.93 108 3.01 100 3.07 134 3.09 129 3.21 135 3.33
  35  0.851  0.097  0.058- 114 2.84 111 2.87  57 2.97  58 3.37  55 3.44 112 3.44
  36  0.558  0.119  0.394- 122 2.95 123 2.96 119 3.10  69 3.15  66 3.29  65 3.32
  37  0.546  0.137  0.725- 131 2.81  78 2.97 132 3.02  74 3.14 128 3.29  75 3.56
  38  0.780  0.211  0.280-  66 2.92  67 3.00  85 3.02  69 3.19  87 3.23  88 3.28
  39  0.116  0.888  0.608-  92 2.97  95 3.07  74 3.09  91 3.13  79 3.15  73 3.27
  40  0.139  0.251  0.609-  98 2.85  77 2.93  95 3.09  76 3.10  94 3.42  73 3.46
  41  0.752  0.210  0.947- 105 2.86  60 2.95  57 2.99 106 3.25  58 3.31 103 3.36
  42  0.769  0.552  0.949-  63 2.98  60 3.03 108 3.03  61 3.13 100 3.17 106 3.27
  43  0.124  0.569  0.946-  62 2.94 101 3.01 107 3.09  61 3.10  58 3.16 106 3.35
  44  0.128  0.904  0.947-  56 2.91 104 3.00  55 3.07 101 3.10  61 3.24 100 3.33
  45  1.000  0.026  0.497- 121 2.86  94 2.95 120 3.07  95 3.19 118 3.34  91 3.42
  46  0.778  0.550  0.603-  97 2.92  99 2.94  91 3.01  78 3.23  79 3.28  81 3.34   7 4.03
  47  0.541  0.440  0.387-  68 2.92 125 3.07 122 3.08  72 3.11  69 3.20 126 3.35
  48  0.871  0.436  0.058- 117 2.85  60 2.97 114 3.07  61 3.21 115 3.26  58 3.38
  49  0.015  0.015  0.838- 104 2.94 130 2.97 103 2.98 100 3.23 127 3.25 129 3.34   8 4.07
  50  0.891  0.792  0.389-  64 2.97 120 2.97 118 3.08  72 3.10  70 3.26 126 3.27
  51  0.306  0.343  0.497- 121 2.85  98 2.86 125 2.97  95 3.27 122 3.46  99 3.49
  52  0.790  0.898  0.278-  64 2.95  85 2.96  82 3.08  66 3.11  72 3.20  84 3.28
  53  0.340  0.992  0.502-  92 2.95  96 2.97 119 2.97  95 3.23 118 3.23 122 3.26
  54  0.003  0.664  0.833- 101 3.06 127 3.07 133 3.08 100 3.12 106 3.13 135 3.17
  55  0.007  0.009  0.998-  44 3.07   8 3.08   6 3.11  28 3.18  35 3.44
  56  0.331  0.998  0.000-  44 2.91  13 3.07   6 3.09
  57  0.658  0.989  0.997-  35 2.97  41 2.99  28 2.99
  58  0.004  0.331  0.996-  23 3.07   8 3.11  43 3.16  41 3.31  35 3.37  48 3.38
  59  0.336  0.337  0.002-  23 2.95   6 3.09   2 3.09   8 3.17
  60  0.667  0.332  0.001-  41 2.95  48 2.97  42 3.03
  61  0.999  0.666  0.001-  43 3.10  42 3.13  13 3.14  48 3.21  44 3.24
  62  0.333  0.668  0.999-  43 2.94   2 3.08  23 3.15  13 3.28
  63  0.666  0.667  0.999-  42 2.98  28 3.05   2 3.06
  64  0.993  0.001  0.334-  52 2.95  50 2.97   3 3.10
  65  0.328  1.000  0.332-  27 3.10   3 3.10  10 3.10  22 3.30  36 3.32
  66  0.666  0.000  0.331-  38 2.92  27 3.07  52 3.11  36 3.29
  67  0.998  0.335  0.332-  15 2.97  38 3.00  17 3.02
[...]
 121  0.104  0.229  0.446-  51 2.85  45 2.86
 122  0.458  0.230  0.447-  36 2.95  47 3.08   7 3.14  53 3.26  51 3.46
 123  0.779  0.220  0.441-  36 2.96  15 2.96   7 3.13  16 3.45
 124  0.112  0.550  0.442-  22 2.94  15 2.99   5 3.10
 125  0.443  0.556  0.445-  51 2.97  21 2.98  47 3.07
 126  0.781  0.555  0.447-   7 3.10   5 3.12  21 3.17  15 3.27  50 3.27  47 3.35
 127  0.116  0.885  0.779-  54 3.07  12 3.11   9 3.18  31 3.20  49 3.25
 128  0.444  0.891  0.776-   9 2.99  19 3.06   1 3.10  37 3.29
 129  0.782  0.882  0.776-   4 3.07  12 3.11   1 3.12  34 3.21  49 3.34
 130  0.104  0.214  0.778-  49 2.97  31 3.08   4 3.09  25 3.33
 131  0.452  0.248  0.772-  37 2.81  31 3.01  33 3.32
 132  0.767  0.221  0.774-  37 3.02  24 3.03  33 3.14   4 3.14
 133  0.117  0.557  0.779-  19 2.93  54 3.08   9 3.20  25 3.21  24 3.47
 134  0.448  0.565  0.780-  19 2.93  34 3.09   1 3.13  25 3.23
 135  0.781  0.552  0.775-  24 3.00  12 3.05  54 3.17  34 3.33  33 3.46

  LATTYP: Found a triclinic cell.
 ALAT       =    13.3275115920
 B/A-ratio  =     1.0031643017
 C/A-ratio  =     2.3781368382
 COS(alpha) =     0.0008003666
 COS(beta)  =     0.0010678410
 COS(gamma) =     0.5043369697

  Lattice vectors:

 A1 = (   6.7033172508,  11.5190303077,  -0.0066212628)
 A2 = (  13.3696666957,   0.0211780678,  -0.0032305072)
 A3 = (   0.0176921440,   0.0106443788, -31.6946395531)

Analysis of symmetry for initial positions (statically):
 Subroutine PRICEL returns:
 Original cell was already a primitive cell.

 Routine SETGRP: Setting up the symmetry group for a
 triclinic supercell.

 Subroutine GETGRP returns: Found  1 space group operations
 (whereof  1 operations were pure point group operations)
 out of a pool of  2 trial point group operations.

The static configuration has the point symmetry C_1 .

Analysis of symmetry for dynamics (positions and initial velocities):
 Subroutine PRICEL returns:
 Original cell was already a primitive cell.

 Routine SETGRP: Setting up the symmetry group for a
 triclinic supercell.

 Subroutine GETGRP returns: Found  1 space group operations
 (whereof  1 operations were pure point group operations)
 out of a pool of  2 trial point group operations.

The dynamic configuration has the point symmetry C_1 .

 Subroutine INISYM returns: Found  1 space group operations
 (whereof  1 operations are pure point group operations),
 and found     1 'primitive' translations

 KPOINTS: K-Spacing Value to Generate K-Mesh: 0.03

Automatic generation of k-mesh.
Space group operators:
 irot       det(A)        alpha          n_x          n_y          n_z        tau_x        tau_y        tau_z
    1     1.000000     0.000000     1.000000     0.000000     0.000000     0.000000     0.000000     0.000000

 Subroutine IBZKPT returns following result:

 Found      5 irreducible k-points:

[...]
   -.186E+02 0.800E+01 -.108E+01   0.165E+02 -.793E+01 0.388E+01   0.211E+01 -.502E-01 -.276E+01   0.260E-02 0.472E-03 0.298E-02
   -.350E+02 -.163E+02 -.365E+01   0.340E+02 0.133E+02 0.420E+01   0.889E+00 0.297E+01 -.471E+00   0.125E-02 0.251E-02 -.182E-02
   0.799E+01 -.182E+01 -.275E+01   -.760E+01 0.770E+01 0.480E+01   -.395E+00 -.588E+01 -.197E+01   0.231E-02 -.991E-03 -.631E-02
   0.130E+02 0.241E+02 0.107E+01   -.150E+02 -.219E+02 -.576E+01   0.203E+01 -.212E+01 0.469E+01   -.112E-02 -.620E-03 0.546E-02
   -.765E+01 0.144E+02 0.702E+01   0.988E+01 -.144E+02 -.107E+02   -.226E+01 -.370E-01 0.367E+01   -.349E-03 -.411E-03 0.691E-02
   0.184E+02 0.152E+02 -.392E+02   -.122E+02 -.120E+02 0.367E+02   -.621E+01 -.329E+01 0.244E+01   -.411E-02 -.236E-02 0.396E-02
   -.861E+01 0.281E+02 0.217E+02   0.827E+01 -.297E+02 -.258E+02   0.296E+00 0.161E+01 0.399E+01   0.580E-03 -.913E-03 -.959E-02
   0.237E+02 -.624E+01 0.415E+01   -.219E+02 0.105E+01 -.654E+01   -.170E+01 0.519E+01 0.233E+01   0.214E-02 0.727E-03 -.655E-03
   -.210E+02 -.262E+01 0.191E+02   0.176E+02 0.554E+01 -.218E+02   0.328E+01 -.291E+01 0.265E+01   -.471E-04 -.147E-02 -.367E-02
   -.216E+02 -.156E+02 -.225E+01   0.193E+02 0.160E+02 0.407E+01   0.240E+01 -.401E+00 -.176E+01   -.449E-04 0.185E-02 -.435E-03
   -.328E+01 -.220E+02 0.317E+02   -.675E-01 0.167E+02 -.317E+02   0.338E+01 0.522E+01 0.620E-01   0.464E-03 0.739E-03 -.681E-03
   0.258E+02 0.159E+02 -.101E+02   -.201E+02 -.135E+02 0.844E+01   -.559E+01 -.240E+01 0.151E+01   -.408E-02 -.380E-02 0.668E-02
   -.101E+02 0.110E+02 -.341E+02   0.125E+02 -.987E+01 0.328E+02   -.246E+01 -.106E+01 0.125E+01   -.371E-02 -.261E-02 0.572E-02
   0.249E+02 -.177E+02 -.522E+01   -.272E+02 0.142E+02 0.389E+01   0.241E+01 0.347E+01 0.135E+01   0.106E-02 0.339E-03 0.602E-02
   -.262E+02 0.189E+02 0.243E+01   0.236E+02 -.224E+02 -.338E+01   0.263E+01 0.356E+01 0.944E+00   -.196E-03 0.118E-02 0.479E-02
   0.754E+01 -.297E+02 0.271E+02   -.418E+01 0.248E+02 -.260E+02   -.332E+01 0.477E+01 -.113E+01   -.165E-02 0.215E-02 -.584E-02
   0.202E+02 0.156E+02 -.381E+02   -.209E+02 -.147E+02 0.429E+02   0.690E+00 -.924E+00 -.469E+01   0.168E-02 -.324E-02 -.793E-03
   0.404E+02 -.275E+01 0.173E+02   -.364E+02 0.378E+01 -.161E+02   -.393E+01 -.102E+01 -.116E+01   -.318E-02 0.316E-02 -.512E-02
   0.181E+02 0.770E+01 -.323E+02   -.127E+02 -.738E+01 0.313E+02   -.540E+01 -.296E+00 0.986E+00   -.283E-02 -.522E-03 0.516E-02
   -.134E+02 -.158E+00 0.230E+01   0.123E+02 -.376E+01 -.432E+01   0.104E+01 0.395E+01 0.202E+01   -.156E-03 -.793E-03 0.627E-02
   0.273E+02 -.239E+02 0.100E+02   -.254E+02 0.206E+02 -.965E+01   -.186E+01 0.330E+01 -.371E+00   -.363E-02 0.305E-03 -.670E-02
   0.222E+02 -.104E+02 0.170E+02   -.154E+02 0.723E+01 -.152E+02   -.669E+01 0.313E+01 -.170E+01   -.107E-02 0.230E-02 -.430E-02
   0.181E+02 -.849E+01 0.934E+01   -.204E+02 0.488E+01 -.957E+01   0.229E+01 0.362E+01 0.254E+00   -.109E-04 0.122E-02 -.278E-02
   -.468E+01 -.246E+01 0.487E+00   0.590E+00 0.528E+01 -.228E+01   0.413E+01 -.290E+01 0.178E+01   0.126E-02 0.772E-03 -.296E-03
   -.893E+01 0.567E+01 -.503E+01   0.801E+01 -.618E+01 0.476E+01   0.867E+00 0.538E+00 0.254E+00   0.793E-03 -.563E-03 0.368E-02
   0.470E+02 0.887E+02 -.541E+02   -.477E+02 -.888E+02 0.560E+02   0.720E+00 0.111E+00 -.182E+01   -.237E-02 -.592E-02 0.757E-02
   -.994E+02 -.605E+01 0.257E+02   0.104E+03 0.879E+01 -.262E+02   -.432E+01 -.271E+01 0.564E+00   0.281E-02 0.121E-02 0.901E-02
   0.541E+02 0.213E+02 -.381E+02   -.588E+02 -.246E+02 0.402E+02   0.465E+01 0.330E+01 -.197E+01   -.464E-03 -.672E-03 0.453E-02
   0.694E+02 -.940E+01 -.523E+02   -.704E+02 0.850E+01 0.520E+02   0.990E+00 0.932E+00 0.414E+00   -.536E-02 0.126E-02 0.794E-02
   -.930E+02 -.218E+02 -.440E+02   0.965E+02 0.214E+02 0.434E+02   -.353E+01 0.438E+00 0.516E+00   0.482E-02 0.287E-02 0.740E-02
   0.331E+02 0.261E+02 -.438E+02   -.381E+02 -.286E+02 0.457E+02   0.500E+01 0.240E+01 -.178E+01   0.177E-03 -.194E-02 0.602E-02
[...]
   0.786E+02 0.285E+02 0.380E+02   -.815E+02 -.289E+02 -.360E+02   0.283E+01 0.439E+00 -.197E+01   -.443E-02 0.333E-03 -.898E-02
   -.901E+02 0.461E+02 0.331E+02   0.942E+02 -.480E+02 -.312E+02   -.397E+01 0.186E+01 -.188E+01   0.379E-02 -.200E-02 -.740E-02
   -.108E+03 0.511E+02 0.115E+02   0.112E+03 -.535E+02 -.887E+01   -.398E+01 0.238E+01 -.248E+01   0.331E-02 -.283E-02 -.892E-02
   0.654E+02 -.222E+02 0.284E+02   -.696E+02 0.254E+02 -.312E+02   0.412E+01 -.320E+01 0.269E+01   0.377E-02 -.117E-02 -.931E-02
   0.444E+02 -.190E+02 0.691E+02   -.443E+02 0.188E+02 -.695E+02   -.151E-01 0.145E+00 0.307E+00   -.607E-02 0.182E-02 -.108E-01
   -.401E+02 -.211E+02 -.213E+02   0.417E+02 0.229E+02 0.225E+02   -.170E+01 -.177E+01 -.126E+01   0.145E-03 -.132E-02 0.376E-02
   0.419E+02 -.589E+02 -.668E+02   -.409E+02 0.620E+02 0.693E+02   -.930E+00 -.310E+01 -.240E+01   -.710E-03 0.144E-02 0.423E-02
   -.864E+01 0.105E+02 -.742E+02   0.771E+01 -.957E+01 0.752E+02   0.860E+00 -.893E+00 -.934E+00   -.888E-04 -.291E-03 0.472E-02
   -.388E+02 -.561E+02 -.473E+02   0.378E+02 0.595E+02 0.487E+02   0.108E+01 -.337E+01 -.133E+01   0.217E-02 0.105E-02 0.264E-02
   0.122E+02 -.125E+02 -.246E+02   -.141E+02 0.166E+02 0.272E+02   0.191E+01 -.405E+01 -.253E+01   0.180E-02 0.352E-03 0.295E-02
   0.255E+02 -.113E+02 -.625E+02   -.231E+02 0.101E+02 0.652E+02   -.244E+01 0.113E+01 -.258E+01   -.347E-02 0.139E-02 0.487E-03
   0.107E+02 0.273E+02 -.845E+01   -.122E+02 -.309E+02 0.782E+01   0.146E+01 0.363E+01 0.579E+00   -.337E-02 0.111E-02 0.421E-02
   -.206E+02 0.817E+02 -.925E+01   0.224E+02 -.850E+02 0.791E+01   -.177E+01 0.322E+01 0.135E+01   0.140E-02 -.154E-02 0.619E-02
   0.196E+02 0.358E+02 0.518E+01   -.225E+02 -.373E+02 -.436E+01   0.282E+01 0.152E+01 -.775E+00   0.113E-02 -.338E-02 0.525E-03
   0.703E+01 0.144E+01 -.302E+01   0.739E-12 0.568E-13 0.189E-12   -.705E+01 -.147E+01 0.301E+01   0.198E-01 0.309E-01 0.142E-01

 POSITION                                       TOTAL-FORCE (eV/Angst)
      2.22884      9.01288     22.84979         0.019530     -0.040789      0.025887
      2.22847      6.40386     29.98257         0.004136      0.092295     -0.048288
     -4.56652     10.30836      8.78347         0.112312     -0.032352     -0.000552
     11.10531      1.21230     22.90674         0.127298     -0.019518     -0.015535
     -4.31995      7.53774     15.88138        -0.038512      0.089831     -0.018017
      2.26133      1.29875      1.75083        -0.040005     -0.041674     -0.024542
      6.86860      3.86180     15.92436        -0.045302      0.023591     -0.060035
      0.08643      2.57844     29.81377        -0.084467     -0.048925     -0.012200
     -2.07075      9.00499     22.81854        -0.006855     -0.033182      0.080294
      4.38042      2.51483      8.69470         0.002210     -0.002918     -0.003911
      6.61353      6.47984      8.67193         0.034902     -0.004908      0.094456
      6.83327      8.89712     22.86765        -0.022648      0.030332      0.003982
     -2.31664      9.04731      1.86147        -0.030766      0.038227      0.046593
      4.42167      0.06954      5.18076        -0.014503     -0.013649      0.074162
      9.07308      5.01187     12.34785        -0.065437      0.045704     -0.094029
      2.27509     11.39195     16.19115        -0.077259      0.079592     -0.148957
     -2.17038      6.32656      8.78253        -0.045103      0.066320      0.011135
      2.21958      3.86176      4.91213        -0.075724     -0.008954      0.073615
     -0.00871      7.65176     26.21703        -0.018629      0.080376     -0.018120
      2.49551     11.49249      5.31118        -0.021818     -0.051106      0.007510
      4.32174      7.61769     15.82311         0.132778     -0.036236      0.030559
     -2.20468      8.79992     12.40951        -0.107146      0.031221     -0.083029
      0.04478      5.01919      1.65564        -0.004568     -0.032170      0.020059
      8.70057      4.99077     22.73680         0.010497      0.027610      0.050978
      0.05263      5.15568     22.71682        -0.094127      0.011864      0.080591
      8.80141      7.40323      5.14898         0.037730     -0.064881      0.041881
     -0.01450     10.28176      8.79467        -0.082942      0.001848     -0.054986
      4.40808     10.20217     29.96502         0.083904      0.046982     -0.075374
      4.32596     10.13371     19.53973         0.100294     -0.005656     -0.005581
      0.05421      7.69041      5.17345        -0.041184      0.026019      0.060157
      2.26630      1.36187     22.94298        -0.095011     -0.073858      0.065924
      2.19970      6.17589      8.76551         0.006662      0.011593      0.053498
      6.74184      3.62312     26.67857         0.047266      0.069874     -0.003827
      4.40812      7.62492     26.55919         0.001895     -0.004531     -0.037873
     10.72868      1.12912      1.84851         0.046070     -0.025218     -0.026337
      6.66579      1.37419     12.49691        -0.054741      0.051777     -0.100515
      6.37420      1.58431     22.96152         0.122684     -0.005742     -0.051480
      9.02045      2.43923      8.88199        -0.070391      0.016357     -0.058693
     -4.37469     10.20377     19.25343         0.002511     -0.040262      0.080915
      0.17751      2.88014     19.30584         0.030919     -0.106013      0.088787
      8.64341      2.41941     30.02009         0.110598      0.033772     -0.087639
      6.58861      6.35708     30.06200         0.004065      0.071515     -0.106601
     -2.14599      6.53269     29.99529         0.040015     -0.001920      0.036884
     -4.33824     10.38860     29.99863        -0.052773     -0.006206     -0.014363
     13.18546      0.31030     15.76108         0.045182     -0.129474     -0.014378
      6.72139      6.32942     19.11047         0.033229      0.029153      0.043020
      4.28805      5.07127     12.27181         0.083769      0.007917     -0.006803
      8.73223      5.03235      1.83133         0.034158      0.022965     -0.023941
      0.08547      0.15873     26.54528        -0.024777     -0.001879      0.005705
      6.63062      9.11886     12.33310         0.029614     -0.055289      0.015174
      1.79504      3.94849     15.74058         0.091952     -0.032028      0.068208
      4.56705     10.34185      8.82036        -0.037764     -0.010365      0.022209
     -2.07967     11.40426     15.91038         0.030074     -0.070342     -0.025645
     -4.39839      7.63014     26.40344        -0.065713      0.033596     -0.011743
      0.01771      0.09307     31.63472         0.024107     -0.056668      0.107826
     -2.22386     11.48325     -0.00169         0.014842      0.026082     -0.009979
      2.18335     11.38031     31.58403        -0.061759      0.007688      0.114233
     -2.16534      3.79641     31.58247        -0.007657      0.036699      0.093198
      2.24751      3.87977      0.05996         0.009436      0.051491     -0.054424
      6.69621      3.83473      0.02736        -0.028063     -0.063638      0.122495
[...]
     -0.14851      2.63531     14.12853        -0.015726      0.060362     -0.145842
      4.58062      2.64516     14.14987        -0.063771     -0.018987     -0.080125
      8.94127      2.54380     13.98444         0.095608     -0.071057      0.092646
     -2.17834      6.32683     13.99116         0.047591     -0.042324      0.090099
      2.21516      6.39259     14.10842        -0.100222     -0.015821     -0.084976
      6.72576      6.39745     14.15102         0.046505      0.009250     -0.092112
     -4.37106     10.17297     24.68029        -0.066746     -0.043554     -0.013851
     -0.01922     10.24523     24.59968         0.035096     -0.009155      0.072590
      4.55652     10.14838     24.58348        -0.063599      0.031516      0.072124
     -0.04988      2.45122     24.66212         0.071343      0.056493      0.108858
      4.38032      2.85681     24.47896        -0.025156      0.045018      0.100057
      8.76554      2.55041     24.52559        -0.053219     -0.023818      0.110286
     -2.17058      6.40322     24.67497         0.022779     -0.020670     -0.043110
      2.21607      6.49379     24.70335         0.053191     -0.067018      0.016746
      6.74272      6.35383     24.55216        -0.020811      0.019628      0.043129
    total drift:                                0.002628      0.006829      0.011779

  FREE ENERGIE OF THE ION-ELECTRON SYSTEM (eV)
  free  energy   TOTEN  =      -588.37481408 eV

  energy  without entropy=     -588.37481408  energy(sigma->0) =     -588.37481408

 total charge

# of ion       s       p       d       f       tot
    1        2.184   6.312   0.855   0.033   9.383
    2        2.185   6.313   0.868   0.035   9.400
    3        2.187   6.302   0.862   0.033   9.383
    4        2.184   6.306   0.863   0.033   9.386
    5        2.185   6.314   0.856   0.033   9.388
    6        2.185   6.314   0.871   0.035   9.406
    7        2.185   6.322   0.863   0.034   9.404
    8        2.184   6.312   0.869   0.034   9.399
    9        1.302   0.937   0.051   0.000   2.290
   10        1.303   0.937   0.050   0.000   2.290
   11        1.300   0.939   0.049   0.000   2.288
   12        1.308   0.926   0.052   0.000   2.286
   13        1.298   0.943   0.050   0.000   2.291
   14        1.304   0.930   0.051   0.000   2.285
   15        1.297   0.948   0.049   0.000   2.293
   16        1.267   1.003   0.046   0.000   2.316
   17        1.301   0.939   0.049   0.000   2.289
   18        1.279   0.982   0.047   0.000   2.308
   19        1.288   0.957   0.048   0.000   2.293
   20        1.277   0.982   0.048   0.000   2.306
   21        1.297   0.942   0.049   0.000   2.288
   22        1.290   0.953   0.049   0.000   2.292
   23        1.300   0.936   0.052   0.000   2.288
   24        1.277   0.980   0.048   0.000   2.306
   25        1.279   0.978   0.049   0.000   2.307
   26        1.279   0.978   0.047   0.000   2.304
   27        1.312   0.921   0.051   0.000   2.284
   28        1.299   0.937   0.051   0.000   2.287
   29        1.298   0.947   0.050   0.000   2.294
   30        1.303   0.936   0.047   0.000   2.285
   31        1.294   0.945   0.050   0.000   2.289
   32        1.278   0.982   0.048   0.000   2.308
   33        1.282   0.968   0.046   0.000   2.296
   34        1.295   0.947   0.049   0.000   2.291
   35        1.264   1.008   0.046   0.000   2.318
   36        1.297   0.947   0.047   0.000   2.290
   37        1.270   0.994   0.047   0.000   2.311
   38        1.288   0.965   0.049   0.000   2.302
   39        1.296   0.944   0.047   0.000   2.286
   40        1.272   0.991   0.046   0.000   2.309
   41        1.275   0.984   0.048   0.000   2.307
   42        1.299   0.942   0.051   0.000   2.292
   43        1.294   0.949   0.050   0.000   2.293
   44        1.290   0.955   0.049   0.000   2.295
   45        1.284   0.972   0.046   0.000   2.302
   46        1.291   0.954   0.048   0.000   2.294
   47        1.296   0.948   0.047   0.000   2.291
   48        1.284   0.969   0.047   0.000   2.301
   49        1.292   0.952   0.048   0.000   2.292
   50        1.295   0.948   0.048   0.000   2.290
   51        1.259   1.018   0.046   0.000   2.322
   52        1.287   0.961   0.050   0.000   2.297
   53        1.285   0.966   0.049   0.000   2.300
   54        1.301   0.938   0.049   0.000   2.287
   55        1.370   2.022   0.021   0.000   3.413
   56        1.388   1.966   0.020   0.000   3.374
   57        1.405   1.897   0.025   0.000   3.327
   58        1.381   1.983   0.024   0.000   3.388
   59        1.364   2.057   0.018   0.000   3.439
   60        1.403   1.904   0.025   0.000   3.331
[...]
  121        1.397   1.930   0.021   0.000   3.348
  122        1.385   1.969   0.026   0.000   3.379
  123        1.388   1.966   0.023   0.000   3.377
  124        1.389   1.961   0.021   0.000   3.371
  125        1.402   1.901   0.023   0.000   3.326
  126        1.368   2.029   0.022   0.000   3.419
  127        1.391   1.932   0.025   0.000   3.349
  128        1.385   1.969   0.022   0.000   3.376
  129        1.365   2.036   0.019   0.000   3.421
  130        1.382   1.978   0.021   0.000   3.381
  131        1.397   1.923   0.023   0.000   3.344
  132        1.383   1.965   0.022   0.000   3.370
  133        1.393   1.925   0.027   0.000   3.346
  134        1.386   1.969   0.024   0.000   3.379
  135        1.392   1.930   0.025   0.000   3.347
tot        189.331 252.606  11.007   0.268 453.212

 BZINTS: Fermi energy:  4.611696;804.000000 electrons
         Band energy:***********;  BLOECHL correction:  0.000000